c CNF file generated from BLIF2CNF script.
c Original BLIF file was blif/jbp.blif
p cnf 282 1616
1 -10 0
5 -10 0
-6 -10 0
-7 -10 0
-8 -10 0
10 -1 -5 6 7 8  0
-10 9 0
-2 -11 0
3 -11 0
5 -11 0
-6 -11 0
-7 -11 0
-8 -11 0
11 2 -3 -5 6 7 8  0
-11 9 0
3 -12 0
4 -12 0
5 -12 0
-6 -12 0
-7 -12 0
-8 -12 0
12 -3 -4 -5 6 7 8  0
-12 9 0
-9 10 11 12  0
18 -20 0
6 -20 0
20 -18 -6  0
-20 19 0
-1 -21 0
2 -21 0
3 -21 0
-4 -21 0
5 -21 0
-6 -21 0
-7 -21 0
-8 -21 0
21 1 -2 -3 4 -5 6 7 8  0
-21 19 0
-1 -22 0
2 -22 0
13 -22 0
-4 -22 0
14 -22 0
15 -22 0
-16 -22 0
-17 -22 0
5 -22 0
-6 -22 0
-7 -22 0
-8 -22 0
22 1 -2 -13 4 -14 -15 16 17 -5 6 7 8  0
-22 19 0
-19 20 21 22  0
-18 -24 0
6 -24 0
24 18 -6  0
-24 23 0
-1 -25 0
2 -25 0
4 -25 0
5 -25 0
-6 -25 0
-7 -25 0
-8 -25 0
25 1 -2 -4 -5 6 7 8  0
-25 23 0
-1 -26 0
-3 -26 0
4 -26 0
5 -26 0
-6 -26 0
-7 -26 0
-8 -26 0
26 1 3 -4 -5 6 7 8  0
-26 23 0
-1 -27 0
2 -27 0
-13 -27 0
-3 -27 0
14 -27 0
-17 -27 0
5 -27 0
-6 -27 0
-7 -27 0
-8 -27 0
27 1 -2 13 3 -14 17 -5 6 7 8  0
-27 23 0
-1 -28 0
2 -28 0
-3 -28 0
14 -28 0
15 -28 0
-16 -28 0
-17 -28 0
5 -28 0
-6 -28 0
-7 -28 0
-8 -28 0
28 1 -2 3 -14 -15 16 17 -5 6 7 8  0
-28 23 0
-1 -29 0
2 -29 0
-3 -29 0
-14 -29 0
-15 -29 0
-16 -29 0
-17 -29 0
5 -29 0
-6 -29 0
-7 -29 0
-8 -29 0
29 1 -2 3 14 15 16 17 -5 6 7 8  0
-29 23 0
-23 24 25 26 27 28 29  0
-36 -40 0
40 36  0
-40 39 0
-18 -41 0
-6 -41 0
37 -41 0
-38 -41 0
41 18 6 -37 38  0
-41 39 0
34 -42 0
-18 -42 0
-6 -42 0
-37 -42 0
38 -42 0
42 -34 18 6 37 -38  0
-42 39 0
-34 -43 0
35 -43 0
-18 -43 0
6 -43 0
-37 -43 0
-38 -43 0
43 34 -35 18 -6 37 38  0
-43 39 0
30 -44 0
-34 -44 0
-35 -44 0
-18 -44 0
6 -44 0
-37 -44 0
38 -44 0
44 -30 34 35 18 -6 37 -38  0
-44 39 0
-30 -45 0
31 -45 0
-34 -45 0
-35 -45 0
18 -45 0
-6 -45 0
-37 -45 0
-38 -45 0
45 30 -31 34 35 -18 6 37 38  0
-45 39 0
-30 -46 0
-31 -46 0
32 -46 0
-34 -46 0
-35 -46 0
18 -46 0
-6 -46 0
-37 -46 0
38 -46 0
46 30 31 -32 34 35 -18 6 37 -38  0
-46 39 0
-30 -47 0
-31 -47 0
-32 -47 0
-33 -47 0
-34 -47 0
-35 -47 0
18 -47 0
6 -47 0
-37 -47 0
38 -47 0
47 30 31 32 33 34 35 -18 -6 37 -38  0
-47 39 0
-30 -48 0
-31 -48 0
-32 -48 0
33 -48 0
-34 -48 0
-35 -48 0
18 -48 0
6 -48 0
-37 -48 0
-38 -48 0
48 30 31 32 -33 34 35 -18 -6 37 38  0
-48 39 0
-39 40 41 42 43 44 45 46 47 48  0
49 -52 0
50 -52 0
52 -49 -50  0
-52 51 0
-51 52  0
-1 -54 0
2 -54 0
-13 -54 0
-3 -54 0
-4 -54 0
14 -54 0
16 -54 0
-17 -54 0
5 -54 0
-6 -54 0
-7 -54 0
-8 -54 0
54 1 -2 13 3 4 -14 -16 17 -5 6 7 8  0
-54 53 0
-53 54  0
1 -56 0
14 -56 0
17 -56 0
-6 -56 0
-7 -56 0
56 -1 -14 -17 6 7  0
-56 55 0
1 -57 0
4 -57 0
16 -57 0
17 -57 0
-6 -57 0
-7 -57 0
57 -1 -4 -16 -17 6 7  0
-57 55 0
1 -58 0
-2 -58 0
4 -58 0
-15 -58 0
17 -58 0
-6 -58 0
-7 -58 0
58 -1 2 -4 15 -17 6 7  0
-58 55 0
1 -59 0
-2 -59 0
3 -59 0
4 -59 0
-14 -59 0
15 -59 0
16 -59 0
-6 -59 0
-7 -59 0
59 -1 2 -3 -4 14 -15 -16 6 7  0
-59 55 0
-55 56 57 58 59  0
3 -61 0
-4 -61 0
-14 -61 0
16 -61 0
-6 -61 0
-7 -61 0
61 -3 4 14 -16 6 7  0
-61 60 0
-4 -62 0
-14 -62 0
-15 -62 0
16 -62 0
-6 -62 0
-7 -62 0
62 4 14 15 -16 6 7  0
-62 60 0
1 -63 0
2 -63 0
14 -63 0
-17 -63 0
-6 -63 0
-7 -63 0
63 -1 -2 -14 17 6 7  0
-63 60 0
1 -64 0
2 -64 0
4 -64 0
-15 -64 0
-17 -64 0
-6 -64 0
-7 -64 0
64 -1 -2 -4 15 17 6 7  0
-64 60 0
1 -65 0
2 -65 0
4 -65 0
16 -65 0
-17 -65 0
-6 -65 0
-7 -65 0
65 -1 -2 -4 -16 17 6 7  0
-65 60 0
-60 61 62 63 64 65  0
6 -67 0
67 -6  0
-67 66 0
-1 -68 0
-2 -68 0
14 -68 0
-17 -68 0
-7 -68 0
68 1 2 -14 17 7  0
-68 66 0
-3 -69 0
-4 -69 0
-14 -69 0
15 -69 0
16 -69 0
-7 -69 0
69 3 4 14 -15 -16 7  0
-69 66 0
-1 -70 0
-2 -70 0
4 -70 0
-15 -70 0
-17 -70 0
-7 -70 0
70 1 2 -4 15 17 7  0
-70 66 0
-1 -71 0
-2 -71 0
4 -71 0
16 -71 0
-17 -71 0
-7 -71 0
71 1 2 -4 -16 17 7  0
-71 66 0
1 -72 0
2 -72 0
4 -72 0
-14 -72 0
-15 -72 0
17 -72 0
-7 -72 0
72 -1 -2 -4 14 15 -17 7  0
-72 66 0
2 -73 0
4 -73 0
-14 -73 0
-15 -73 0
-16 -73 0
17 -73 0
-7 -73 0
73 -2 -4 14 15 16 -17 7  0
-73 66 0
-2 -74 0
3 -74 0
4 -74 0
-14 -74 0
15 -74 0
16 -74 0
-17 -74 0
-7 -74 0
74 2 -3 -4 14 -15 -16 17 7  0
-74 66 0
-66 67 68 69 70 71 72 73 74  0
-6 -76 0
7 -76 0
76 6 -7  0
-76 75 0
-1 -77 0
-2 -77 0
-6 -77 0
77 1 2 6  0
-77 75 0
-4 -78 0
-14 -78 0
-6 -78 0
78 4 14 6  0
-78 75 0
-2 -79 0
17 -79 0
-6 -79 0
79 2 -17 6  0
-79 75 0
14 -80 0
17 -80 0
-6 -80 0
80 -14 -17 6  0
-80 75 0
15 -81 0
17 -81 0
-6 -81 0
81 -15 -17 6  0
-81 75 0
-14 -82 0
15 -82 0
-16 -82 0
-6 -82 0
82 14 -15 16 6  0
-82 75 0
-1 -83 0
16 -83 0
17 -83 0
-6 -83 0
83 1 -16 -17 6  0
-83 75 0
-75 76 77 78 79 80 81 82 83  0
6 -85 0
85 -6  0
-85 84 0
1 -86 0
14 -86 0
-7 -86 0
86 -1 -14 7  0
-86 84 0
-2 -87 0
14 -87 0
17 -87 0
-7 -87 0
87 2 -14 -17 7  0
-87 84 0
1 -88 0
-2 -88 0
4 -88 0
-15 -88 0
-7 -88 0
88 -1 2 -4 15 7  0
-88 84 0
3 -89 0
-4 -89 0
-14 -89 0
16 -89 0
-7 -89 0
89 -3 4 14 -16 7  0
-89 84 0
-4 -90 0
-14 -90 0
-15 -90 0
16 -90 0
-7 -90 0
90 4 14 15 -16 7  0
-90 84 0
1 -91 0
4 -91 0
-15 -91 0
-16 -91 0
-7 -91 0
91 -1 -4 15 16 7  0
-91 84 0
1 -92 0
-3 -92 0
4 -92 0
15 -92 0
16 -92 0
-7 -92 0
92 -1 3 -4 -15 -16 7  0
-92 84 0
-1 -93 0
-2 -93 0
4 -93 0
16 -93 0
17 -93 0
-7 -93 0
93 1 2 -4 -16 -17 7  0
-93 84 0
4 -94 0
-14 -94 0
-15 -94 0
-16 -94 0
17 -94 0
-7 -94 0
94 -4 14 15 16 -17 7  0
-94 84 0
1 -95 0
2 -95 0
4 -95 0
16 -95 0
-17 -95 0
-7 -95 0
95 -1 -2 -4 -16 17 7  0
-95 84 0
-1 -96 0
-2 -96 0
3 -96 0
-14 -96 0
15 -96 0
16 -96 0
-7 -96 0
96 1 2 -3 14 -15 -16 7  0
-96 84 0
-84 85 86 87 88 89 90 91 92 93 94 95 96  0
14 -98 0
-6 -98 0
-7 -98 0
98 -14 6 7  0
-98 97 0
4 -99 0
-15 -99 0
-6 -99 0
-7 -99 0
99 -4 15 6 7  0
-99 97 0
4 -100 0
16 -100 0
-6 -100 0
-7 -100 0
100 -4 -16 6 7  0
-100 97 0
-97 98 99 100  0
101 -103 0
-15 -103 0
7 -103 0
103 -101 15 -7  0
-103 102 0
-1 -104 0
2 -104 0
13 -104 0
-3 -104 0
-4 -104 0
-14 -104 0
15 -104 0
16 -104 0
-17 -104 0
5 -104 0
-6 -104 0
-7 -104 0
-8 -104 0
104 1 -2 -13 3 4 14 -15 -16 17 -5 6 7 8  0
-104 102 0
-102 103 104  0
-1 -106 0
2 -106 0
-3 -106 0
4 -106 0
5 -106 0
-6 -106 0
-7 -106 0
-8 -106 0
106 1 -2 3 -4 -5 6 7 8  0
-106 105 0
-105 106  0
-1 -108 0
2 -108 0
13 -108 0
-3 -108 0
-4 -108 0
14 -108 0
15 -108 0
-17 -108 0
5 -108 0
-6 -108 0
-7 -108 0
-8 -108 0
108 1 -2 -13 3 4 -14 -15 17 -5 6 7 8  0
-108 107 0
-1 -109 0
2 -109 0
-13 -109 0
-3 -109 0
-4 -109 0
14 -109 0
16 -109 0
-17 -109 0
5 -109 0
-6 -109 0
-7 -109 0
-8 -109 0
109 1 -2 13 3 4 -14 -16 17 -5 6 7 8  0
-109 107 0
-1 -110 0
2 -110 0
-3 -110 0
-4 -110 0
-14 -110 0
-15 -110 0
16 -110 0
-17 -110 0
5 -110 0
-6 -110 0
-7 -110 0
-8 -110 0
110 1 -2 3 4 14 15 -16 17 -5 6 7 8  0
-110 107 0
-107 108 109 110  0
111 -113 0
18 -113 0
6 -113 0
113 -111 -18 -6  0
-113 112 0
-112 113  0
-18 -115 0
-6 -115 0
-7 -115 0
8 -115 0
115 18 6 7 -8  0
-115 114 0
-114 115  0
-1 -117 0
2 -117 0
3 -117 0
-4 -117 0
5 -117 0
-6 -117 0
-7 -117 0
-8 -117 0
117 1 -2 -3 4 -5 6 7 8  0
-117 116 0
-116 117  0
-101 -119 0
15 -119 0
7 -119 0
119 101 -15 -7  0
-119 118 0
101 -120 0
-15 -120 0
7 -120 0
120 -101 15 -7  0
-120 118 0
-1 -121 0
2 -121 0
13 -121 0
-3 -121 0
-4 -121 0
-14 -121 0
15 -121 0
-17 -121 0
5 -121 0
-6 -121 0
-7 -121 0
-8 -121 0
121 1 -2 -13 3 4 14 -15 17 -5 6 7 8  0
-121 118 0
-118 119 120 121  0
-18 -126 0
6 -126 0
126 18 -6  0
-126 125 0
-1 -127 0
-2 -127 0
-122 -127 0
13 -127 0
3 -127 0
17 -127 0
123 -127 0
124 -127 0
6 -127 0
127 1 2 122 -13 -3 -17 -123 -124 -6  0
-127 125 0
-1 -128 0
-2 -128 0
122 -128 0
-13 -128 0
3 -128 0
17 -128 0
123 -128 0
124 -128 0
6 -128 0
128 1 2 -122 13 -3 -17 -123 -124 -6  0
-128 125 0
-1 -129 0
-2 -129 0
-122 -129 0
13 -129 0
3 -129 0
17 -129 0
123 -129 0
124 -129 0
5 -129 0
-7 -129 0
-8 -129 0
129 1 2 122 -13 -3 -17 -123 -124 -5 7 8  0
-129 125 0
-1 -130 0
-2 -130 0
122 -130 0
-13 -130 0
3 -130 0
17 -130 0
123 -130 0
124 -130 0
5 -130 0
-7 -130 0
-8 -130 0
130 1 2 -122 13 -3 -17 -123 -124 -5 7 8  0
-130 125 0
-125 126 127 128 129 130  0
36 -132 0
132 -36  0
-132 131 0
-131 132  0
-49 -134 0
50 -134 0
134 49 -50  0
-134 133 0
-133 134  0
2 -136 0
3 -136 0
136 -2 -3  0
-136 135 0
-2 -137 0
13 -137 0
101 -137 0
-3 -137 0
-4 -137 0
137 2 -13 -101 3 4  0
-137 135 0
-2 -138 0
-101 -138 0
4 -138 0
-14 -138 0
-15 -138 0
-16 -138 0
138 2 101 -4 14 15 16  0
-138 135 0
-2 -139 0
-3 -139 0
4 -139 0
-14 -139 0
-15 -139 0
-16 -139 0
139 2 3 -4 14 15 16  0
-139 135 0
-135 136 137 138 139  0
2 -142 0
101 -142 0
142 -2 -101  0
-142 141 0
140 -143 0
101 -143 0
-3 -143 0
-4 -143 0
143 -140 -101 3 4  0
-143 141 0
-2 -144 0
-101 -144 0
4 -144 0
-14 -144 0
-15 -144 0
16 -144 0
144 2 101 -4 14 15 -16  0
-144 141 0
101 -145 0
-3 -145 0
4 -145 0
-14 -145 0
-15 -145 0
-16 -145 0
145 -101 3 -4 14 15 16  0
-145 141 0
-141 142 143 144 145  0
2 -148 0
4 -148 0
148 -2 -4  0
-148 147 0
-2 -149 0
146 -149 0
101 -149 0
-3 -149 0
-4 -149 0
149 2 -146 -101 3 4  0
-149 147 0
-101 -150 0
4 -150 0
-14 -150 0
15 -150 0
-16 -150 0
150 101 -4 14 -15 16  0
-150 147 0
101 -151 0
-3 -151 0
4 -151 0
-14 -151 0
-15 -151 0
-16 -151 0
151 -101 3 -4 14 15 16  0
-151 147 0
-147 148 149 150 151  0
2 -154 0
17 -154 0
154 -2 -17  0
-154 153 0
-2 -155 0
152 -155 0
101 -155 0
-3 -155 0
-4 -155 0
155 2 -152 -101 3 4  0
-155 153 0
-2 -156 0
-101 -156 0
4 -156 0
-14 -156 0
15 -156 0
16 -156 0
156 2 101 -4 14 -15 -16  0
-156 153 0
-2 -157 0
101 -157 0
-3 -157 0
4 -157 0
-14 -157 0
-15 -157 0
-16 -157 0
157 2 -101 3 -4 14 15 16  0
-157 153 0
-153 154 155 156 157  0
2 -159 0
123 -159 0
159 -2 -123  0
-159 158 0
-2 -160 0
13 -160 0
101 -160 0
-3 -160 0
4 -160 0
160 2 -13 -101 3 -4  0
-160 158 0
-2 -161 0
-101 -161 0
4 -161 0
14 -161 0
-15 -161 0
-16 -161 0
161 2 101 -4 -14 15 16  0
-161 158 0
-2 -162 0
101 -162 0
-3 -162 0
-4 -162 0
-14 -162 0
-15 -162 0
-16 -162 0
162 2 -101 3 4 14 15 16  0
-162 158 0
-158 159 160 161 162  0
2 -164 0
124 -164 0
164 -2 -124  0
-164 163 0
-2 -165 0
140 -165 0
101 -165 0
-3 -165 0
4 -165 0
165 2 -140 -101 3 -4  0
-165 163 0
-2 -166 0
-101 -166 0
4 -166 0
14 -166 0
-15 -166 0
16 -166 0
166 2 101 -4 -14 15 -16  0
-166 163 0
-2 -167 0
101 -167 0
-3 -167 0
-4 -167 0
-14 -167 0
-15 -167 0
-16 -167 0
167 2 -101 3 4 14 15 16  0
-167 163 0
-163 164 165 166 167  0
1 -169 0
2 -169 0
169 -1 -2  0
-169 168 0
-2 -170 0
146 -170 0
101 -170 0
-3 -170 0
4 -170 0
170 2 -146 -101 3 -4  0
-170 168 0
-2 -171 0
-101 -171 0
4 -171 0
14 -171 0
15 -171 0
-16 -171 0
171 2 101 -4 -14 -15 16  0
-171 168 0
-2 -172 0
101 -172 0
-3 -172 0
-4 -172 0
-14 -172 0
-15 -172 0
-16 -172 0
172 2 -101 3 4 14 15 16  0
-172 168 0
-168 169 170 171 172  0
2 -174 0
122 -174 0
174 -2 -122  0
-174 173 0
-2 -175 0
152 -175 0
101 -175 0
-3 -175 0
4 -175 0
175 2 -152 -101 3 -4  0
-175 173 0
-2 -176 0
-101 -176 0
4 -176 0
14 -176 0
15 -176 0
16 -176 0
176 2 101 -4 -14 -15 -16  0
-176 173 0
-2 -177 0
101 -177 0
-3 -177 0
-4 -177 0
-14 -177 0
-15 -177 0
-16 -177 0
177 2 -101 3 4 14 15 16  0
-177 173 0
-173 174 175 176 177  0
7 -179 0
179 -7  0
-179 178 0
-1 -180 0
2 -180 0
13 -180 0
-3 -180 0
-4 -180 0
-14 -180 0
15 -180 0
-17 -180 0
5 -180 0
-6 -180 0
-8 -180 0
180 1 -2 -13 3 4 14 -15 17 -5 6 8  0
-180 178 0
-1 -181 0
2 -181 0
13 -181 0
-3 -181 0
-4 -181 0
15 -181 0
16 -181 0
-17 -181 0
5 -181 0
-6 -181 0
-8 -181 0
181 1 -2 -13 3 4 -15 -16 17 -5 6 8  0
-181 178 0
-178 179 180 181  0
-18 -183 0
6 -183 0
183 18 -6  0
-183 182 0
-1 -184 0
2 -184 0
-13 -184 0
-3 -184 0
-4 -184 0
14 -184 0
-17 -184 0
5 -184 0
-6 -184 0
-7 -184 0
-8 -184 0
184 1 -2 13 3 4 -14 17 -5 6 7 8  0
-184 182 0
-1 -185 0
2 -185 0
-3 -185 0
-4 -185 0
14 -185 0
15 -185 0
-16 -185 0
-17 -185 0
5 -185 0
-6 -185 0
-7 -185 0
-8 -185 0
185 1 -2 3 4 -14 -15 16 17 -5 6 7 8  0
-185 182 0
-182 183 184 185  0
-36 -187 0
187 36  0
-187 186 0
-30 -188 0
-34 -188 0
-35 -188 0
-37 -188 0
188 30 34 35 37  0
-188 186 0
-186 187 188  0
-30 -190 0
-34 -190 0
-35 -190 0
36 -190 0
-37 -190 0
190 30 34 35 -36 37  0
-190 189 0
-189 190  0
-36 -192 0
192 36  0
-192 191 0
30 -193 0
-34 -193 0
-37 -193 0
193 -30 34 37  0
-193 191 0
-34 -194 0
35 -194 0
-37 -194 0
194 34 -35 37  0
-194 191 0
-31 -195 0
-32 -195 0
-34 -195 0
-37 -195 0
195 31 32 34 37  0
-195 191 0
-191 192 193 194 195  0
30 -197 0
-34 -197 0
36 -197 0
-37 -197 0
197 -30 34 -36 37  0
-197 196 0
-34 -198 0
35 -198 0
36 -198 0
-37 -198 0
198 34 -35 -36 37  0
-198 196 0
-31 -199 0
-32 -199 0
-34 -199 0
36 -199 0
-37 -199 0
199 31 32 34 -36 37  0
-199 196 0
-196 197 198 199  0
36 -201 0
37 -201 0
201 -36 -37  0
-201 200 0
-34 -202 0
35 -202 0
36 -202 0
202 34 -35 -36  0
-202 200 0
-30 -203 0
31 -203 0
-34 -203 0
36 -203 0
203 30 -31 34 -36  0
-203 200 0
-30 -204 0
-32 -204 0
33 -204 0
-34 -204 0
36 -204 0
204 30 32 -33 34 -36  0
-204 200 0
-200 201 202 203 204  0
34 -206 0
36 -206 0
-37 -206 0
206 -34 -36 37  0
-206 205 0
30 -207 0
-35 -207 0
36 -207 0
-37 -207 0
207 -30 35 -36 37  0
-207 205 0
-31 -208 0
32 -208 0
-35 -208 0
36 -208 0
-37 -208 0
208 31 -32 35 -36 37  0
-208 205 0
-31 -209 0
-33 -209 0
-35 -209 0
36 -209 0
-37 -209 0
209 31 33 35 -36 37  0
-209 205 0
-205 206 207 208 209  0
-1 -211 0
-3 -211 0
4 -211 0
5 -211 0
-6 -211 0
-7 -211 0
-8 -211 0
211 1 3 -4 -5 6 7 8  0
-211 210 0
-210 211  0
-1 -213 0
2 -213 0
-13 -213 0
-3 -213 0
-4 -213 0
14 -213 0
-17 -213 0
5 -213 0
-6 -213 0
-7 -213 0
-8 -213 0
213 1 -2 13 3 4 -14 17 -5 6 7 8  0
-213 212 0
-212 213  0
-1 -215 0
2 -215 0
13 -215 0
-3 -215 0
-4 -215 0
-14 -215 0
-15 -215 0
-17 -215 0
5 -215 0
-6 -215 0
-7 -215 0
-8 -215 0
215 1 -2 -13 3 4 14 15 17 -5 6 7 8  0
-215 214 0
-214 215  0
1 -218 0
2 -218 0
14 -218 0
17 -218 0
216 -218 0
-6 -218 0
-7 -218 0
218 -1 -2 -14 -17 -216 6 7  0
-218 217 0
1 -219 0
2 -219 0
4 -219 0
16 -219 0
17 -219 0
216 -219 0
-6 -219 0
-7 -219 0
219 -1 -2 -4 -16 -17 -216 6 7  0
-219 217 0
1 -220 0
-2 -220 0
3 -220 0
4 -220 0
-14 -220 0
15 -220 0
16 -220 0
17 -220 0
-6 -220 0
-7 -220 0
220 -1 2 -3 -4 14 -15 -16 -17 6 7  0
-220 217 0
1 -221 0
-2 -221 0
3 -221 0
4 -221 0
-14 -221 0
15 -221 0
16 -221 0
216 -221 0
-6 -221 0
-7 -221 0
221 -1 2 -3 -4 14 -15 -16 -216 6 7  0
-221 217 0
-217 218 219 220 221  0
-1 -223 0
2 -223 0
-3 -223 0
-4 -223 0
-14 -223 0
-15 -223 0
16 -223 0
-17 -223 0
5 -223 0
-6 -223 0
-7 -223 0
-8 -223 0
223 1 -2 3 4 14 15 -16 17 -5 6 7 8  0
-223 222 0
-222 223  0
-1 -225 0
2 -225 0
-3 -225 0
-4 -225 0
-14 -225 0
-15 -225 0
-17 -225 0
5 -225 0
-6 -225 0
-7 -225 0
-8 -225 0
225 1 -2 3 4 14 15 17 -5 6 7 8  0
-225 224 0
-224 225  0
-1 -227 0
2 -227 0
3 -227 0
4 -227 0
5 -227 0
-6 -227 0
-7 -227 0
-8 -227 0
227 1 -2 -3 -4 -5 6 7 8  0
-227 226 0
-1 -228 0
3 -228 0
4 -228 0
14 -228 0
15 -228 0
-16 -228 0
5 -228 0
-6 -228 0
-7 -228 0
-8 -228 0
228 1 -3 -4 -14 -15 16 -5 6 7 8  0
-228 226 0
-226 227 228  0
1 -230 0
5 -230 0
-6 -230 0
-7 -230 0
-8 -230 0
230 -1 -5 6 7 8  0
-230 229 0
2 -231 0
4 -231 0
5 -231 0
-6 -231 0
-7 -231 0
-8 -231 0
231 -2 -4 -5 6 7 8  0
-231 229 0
-2 -232 0
3 -232 0
14 -232 0
15 -232 0
16 -232 0
5 -232 0
-6 -232 0
-7 -232 0
-8 -232 0
232 2 -3 -14 -15 -16 -5 6 7 8  0
-232 229 0
-229 230 231 232  0
-1 -236 0
2 -236 0
-3 -236 0
-4 -236 0
-14 -236 0
15 -236 0
-16 -236 0
17 -236 0
216 -236 0
5 -236 0
-6 -236 0
-7 -236 0
-8 -236 0
236 1 -2 3 4 14 -15 16 -17 -216 -5 6 7 8  0
-236 235 0
-1 -237 0
2 -237 0
-3 -237 0
-4 -237 0
-14 -237 0
15 -237 0
16 -237 0
17 -237 0
-216 -237 0
5 -237 0
-6 -237 0
-7 -237 0
-8 -237 0
237 1 -2 3 4 14 -15 -16 -17 216 -5 6 7 8  0
-237 235 0
-1 -238 0
2 -238 0
-3 -238 0
-4 -238 0
14 -238 0
-15 -238 0
-16 -238 0
17 -238 0
233 -238 0
5 -238 0
-6 -238 0
-7 -238 0
-8 -238 0
238 1 -2 3 4 -14 15 16 -17 -233 -5 6 7 8  0
-238 235 0
-1 -239 0
2 -239 0
-3 -239 0
-4 -239 0
14 -239 0
-15 -239 0
16 -239 0
17 -239 0
-233 -239 0
5 -239 0
-6 -239 0
-7 -239 0
-8 -239 0
239 1 -2 3 4 -14 15 -16 -17 233 -5 6 7 8  0
-239 235 0
-1 -240 0
2 -240 0
-3 -240 0
-4 -240 0
-14 -240 0
-15 -240 0
-16 -240 0
17 -240 0
5 -240 0
-6 -240 0
-7 -240 0
-8 -240 0
234 -240 0
240 1 -2 3 4 14 15 16 -17 -5 6 7 8 -234  0
-240 235 0
-1 -241 0
2 -241 0
-3 -241 0
-4 -241 0
-14 -241 0
-15 -241 0
16 -241 0
17 -241 0
5 -241 0
-6 -241 0
-7 -241 0
-8 -241 0
-234 -241 0
241 1 -2 3 4 14 15 -16 -17 -5 6 7 8 234  0
-241 235 0
-235 236 237 238 239 240 241  0
1 -243 0
-14 -243 0
5 -243 0
-6 -243 0
-7 -243 0
-8 -243 0
243 -1 14 -5 6 7 8  0
-243 242 0
1 -244 0
16 -244 0
5 -244 0
-6 -244 0
-7 -244 0
-8 -244 0
244 -1 -16 -5 6 7 8  0
-244 242 0
2 -245 0
3 -245 0
4 -245 0
-14 -245 0
5 -245 0
-6 -245 0
-7 -245 0
-8 -245 0
245 -2 -3 -4 14 -5 6 7 8  0
-245 242 0
2 -246 0
3 -246 0
4 -246 0
16 -246 0
5 -246 0
-6 -246 0
-7 -246 0
-8 -246 0
246 -2 -3 -4 -16 -5 6 7 8  0
-246 242 0
3 -247 0
4 -247 0
14 -247 0
15 -247 0
16 -247 0
5 -247 0
-6 -247 0
-7 -247 0
-8 -247 0
247 -3 -4 -14 -15 -16 -5 6 7 8  0
-247 242 0
-1 -248 0
-2 -248 0
3 -248 0
-4 -248 0
14 -248 0
15 -248 0
-16 -248 0
5 -248 0
-6 -248 0
-7 -248 0
-8 -248 0
248 1 2 -3 4 -14 -15 16 -5 6 7 8  0
-248 242 0
2 -249 0
-3 -249 0
-4 -249 0
-14 -249 0
-15 -249 0
16 -249 0
-17 -249 0
5 -249 0
-6 -249 0
-7 -249 0
-8 -249 0
249 -2 3 4 14 15 -16 17 -5 6 7 8  0
-249 242 0
-242 243 244 245 246 247 248 249  0
18 -251 0
6 -251 0
251 -18 -6  0
-251 250 0
-250 251  0
-1 -253 0
2 -253 0
-13 -253 0
-3 -253 0
-4 -253 0
14 -253 0
-16 -253 0
-17 -253 0
5 -253 0
-6 -253 0
-7 -253 0
-8 -253 0
253 1 -2 13 3 4 -14 16 17 -5 6 7 8  0
-253 252 0
-252 253  0
-1 -255 0
2 -255 0
-3 -255 0
-4 -255 0
-14 -255 0
-15 -255 0
-16 -255 0
-17 -255 0
5 -255 0
-6 -255 0
-7 -255 0
-8 -255 0
255 1 -2 3 4 14 15 16 17 -5 6 7 8  0
-255 254 0
-254 255  0
6 -257 0
257 -6  0
-257 256 0
7 -258 0
258 -7  0
-258 256 0
1 -259 0
-14 -259 0
5 -259 0
-8 -259 0
259 -1 14 -5 8  0
-259 256 0
1 -260 0
16 -260 0
5 -260 0
-8 -260 0
260 -1 -16 -5 8  0
-260 256 0
2 -261 0
3 -261 0
-14 -261 0
5 -261 0
-8 -261 0
261 -2 -3 14 -5 8  0
-261 256 0
2 -262 0
3 -262 0
16 -262 0
5 -262 0
-8 -262 0
262 -2 -3 -16 -5 8  0
-262 256 0
-1 -263 0
2 -263 0
3 -263 0
-4 -263 0
5 -263 0
-8 -263 0
263 1 -2 -3 4 -5 8  0
-263 256 0
3 -264 0
4 -264 0
14 -264 0
15 -264 0
16 -264 0
5 -264 0
-8 -264 0
264 -3 -4 -14 -15 -16 -5 8  0
-264 256 0
-1 -265 0
3 -265 0
-4 -265 0
14 -265 0
15 -265 0
-16 -265 0
5 -265 0
-8 -265 0
265 1 -3 4 -14 -15 16 -5 8  0
-265 256 0
-1 -266 0
2 -266 0
13 -266 0
-4 -266 0
15 -266 0
-17 -266 0
5 -266 0
-8 -266 0
266 1 -2 -13 4 -15 17 -5 8  0
-266 256 0
2 -267 0
-13 -267 0
-4 -267 0
14 -267 0
16 -267 0
-17 -267 0
5 -267 0
-8 -267 0
267 -2 13 4 -14 -16 17 -5 8  0
-267 256 0
2 -268 0
-4 -268 0
-14 -268 0
-15 -268 0
16 -268 0
-17 -268 0
5 -268 0
-8 -268 0
268 -2 4 14 15 -16 17 -5 8  0
-268 256 0
-256 257 258 259 260 261 262 263 264 265 266 267 268  0
-1 -270 0
-2 -270 0
3 -270 0
5 -270 0
-6 -270 0
-7 -270 0
-8 -270 0
270 1 2 -3 -5 6 7 8  0
-270 269 0
-1 -271 0
-2 -271 0
4 -271 0
5 -271 0
-6 -271 0
-7 -271 0
-8 -271 0
271 1 2 -4 -5 6 7 8  0
-271 269 0
-269 270 271  0
-18 -273 0
6 -273 0
273 18 -6  0
-273 272 0
-272 273  0
-1 -275 0
2 -275 0
3 -275 0
-4 -275 0
5 -275 0
-6 -275 0
-7 -275 0
-8 -275 0
275 1 -2 -3 4 -5 6 7 8  0
-275 274 0
-1 -276 0
-2 -276 0
-3 -276 0
-4 -276 0
5 -276 0
-6 -276 0
-7 -276 0
-8 -276 0
276 1 2 3 4 -5 6 7 8  0
-276 274 0
-274 275 276  0
-1 -278 0
-2 -278 0
3 -278 0
-14 -278 0
5 -278 0
-6 -278 0
-7 -278 0
-8 -278 0
278 1 2 -3 14 -5 6 7 8  0
-278 277 0
-1 -279 0
-2 -279 0
3 -279 0
16 -279 0
5 -279 0
-6 -279 0
-7 -279 0
-8 -279 0
279 1 2 -3 -16 -5 6 7 8  0
-279 277 0
-277 278 279  0
7 -281 0
281 -7  0
-281 280 0
-1 -282 0
2 -282 0
13 -282 0
-3 -282 0
-4 -282 0
-14 -282 0
15 -282 0
-17 -282 0
5 -282 0
-6 -282 0
-8 -282 0
282 1 -2 -13 3 4 14 -15 17 -5 6 8  0
-282 280 0
-280 281 282  0
